* ENCODING=ISO-8859-1
NAME          miblp_20_20_50_0110_10_10
ROWS
 N  OBJROW  
 G  R0000000
 G  R0000001
 G  R0000002
 G  R0000003
 G  R0000004
 G  R0000005
 G  R0000006
 G  R0000007
 G  R0000008
 G  R0000009
 G  R0000010
 G  R0000011
 G  R0000012
 G  R0000013
 G  R0000014
 G  R0000015
 G  R0000016
 G  R0000017
 G  R0000018
 G  R0000019
COLUMNS
    MARK0000  'MARKER'                 'INTORG'
    C0000000  OBJROW                          8
    C0000000  R0000000                      -35
    C0000000  R0000002                      -39
    C0000000  R0000003                       -6
    C0000000  R0000004                       -9
    C0000000  R0000005                      -41
    C0000000  R0000006                      -35
    C0000000  R0000007                      -43
    C0000000  R0000008                      -13
    C0000000  R0000009                      -43
    C0000000  R0000010                      -32
    C0000000  R0000011                       -5
    C0000000  R0000014                       -2
    C0000000  R0000016                      -32
    C0000000  R0000019                      -27
    C0000001  OBJROW                        -29
    C0000001  R0000000                       -3
    C0000001  R0000001                      -32
    C0000001  R0000002                      -46
    C0000001  R0000003                       -9
    C0000001  R0000006                      -13
    C0000001  R0000007                       -5
    C0000001  R0000008                       -5
    C0000001  R0000009                      -12
    C0000001  R0000010                      -28
    C0000001  R0000011                      -45
    C0000001  R0000012                      -10
    C0000001  R0000013                       -7
    C0000001  R0000016                      -17
    C0000001  R0000017                      -13
    C0000001  R0000019                      -46
    C0000002  OBJROW                         43
    C0000002  R0000002                      -42
    C0000002  R0000003                      -34
    C0000002  R0000005                      -50
    C0000002  R0000006                       -4
    C0000002  R0000007                      -19
    C0000002  R0000008                      -50
    C0000002  R0000009                      -34
    C0000002  R0000010                       -1
    C0000002  R0000011                      -23
    C0000002  R0000013                      -15
    C0000002  R0000016                       -1
    C0000002  R0000017                       -9
    C0000002  R0000018                      -23
    C0000002  R0000019                       -3
    C0000003  OBJROW                        -48
    C0000003  R0000003                       -5
    C0000003  R0000007                      -48
    C0000003  R0000008                      -31
    C0000003  R0000009                      -29
    C0000003  R0000010                      -37
    C0000003  R0000011                      -50
    C0000003  R0000012                      -36
    C0000003  R0000013                      -41
    C0000003  R0000015                      -13
    C0000003  R0000016                      -25
    C0000003  R0000018                      -30
    C0000003  R0000019                       -2
    C0000004  OBJROW                         45
    C0000004  R0000000                      -30
    C0000004  R0000002                      -17
    C0000004  R0000003                      -12
    C0000004  R0000005                      -31
    C0000004  R0000006                      -27
    C0000004  R0000007                      -31
    C0000004  R0000008                      -27
    C0000004  R0000010                      -27
    C0000004  R0000012                      -12
    C0000004  R0000013                       -7
    C0000004  R0000015                      -45
    C0000004  R0000016                      -26
    C0000004  R0000017                      -40
    C0000004  R0000018                       -3
    C0000004  R0000019                      -13
    C0000005  OBJROW                         49
    C0000005  R0000000                       -1
    C0000005  R0000001                      -19
    C0000005  R0000002                      -18
    C0000005  R0000003                      -21
    C0000005  R0000004                      -19
    C0000005  R0000005                       -5
    C0000005  R0000006                      -12
    C0000005  R0000007                      -20
    C0000005  R0000008                      -44
    C0000005  R0000010                      -38
    C0000005  R0000011                       -6
    C0000005  R0000012                      -46
    C0000005  R0000014                      -12
    C0000005  R0000015                      -37
    C0000005  R0000016                      -14
    C0000005  R0000017                       -8
    C0000005  R0000018                      -44
    C0000005  R0000019                      -10
    C0000006  OBJROW                         41
    C0000006  R0000001                       -4
    C0000006  R0000003                       -5
    C0000006  R0000005                      -47
    C0000006  R0000006                      -14
    C0000006  R0000007                      -31
    C0000006  R0000008                      -23
    C0000006  R0000009                      -31
    C0000006  R0000010                      -33
    C0000006  R0000011                      -41
    C0000006  R0000012                       -2
    C0000006  R0000014                      -42
    C0000006  R0000015                      -13
    C0000006  R0000016                      -43
    C0000006  R0000017                      -40
    C0000006  R0000019                      -10
    C0000007  OBJROW                        -33
    C0000007  R0000000                      -20
    C0000007  R0000002                      -49
    C0000007  R0000004                      -21
    C0000007  R0000005                       -4
    C0000007  R0000006                      -18
    C0000007  R0000007                      -34
    C0000007  R0000008                      -34
    C0000007  R0000009                      -34
    C0000007  R0000011                      -35
    C0000007  R0000015                      -31
    C0000007  R0000016                       -4
    C0000007  R0000017                      -21
    C0000007  R0000018                      -23
    C0000007  R0000019                      -21
    C0000008  OBJROW                         19
    C0000008  R0000001                      -33
    C0000008  R0000002                      -44
    C0000008  R0000003                      -37
    C0000008  R0000004                      -38
    C0000008  R0000006                       -1
    C0000008  R0000007                      -28
    C0000008  R0000008                      -24
    C0000008  R0000009                       -6
    C0000008  R0000011                      -15
    C0000008  R0000014                       -9
    C0000008  R0000016                      -15
    C0000008  R0000017                       -6
    C0000008  R0000018                      -25
    C0000008  R0000019                      -44
    C0000009  OBJROW                        -47
    C0000009  R0000001                      -39
    C0000009  R0000002                      -43
    C0000009  R0000004                      -28
    C0000009  R0000005                      -43
    C0000009  R0000006                      -39
    C0000009  R0000007                       -5
    C0000009  R0000008                      -20
    C0000009  R0000011                      -43
    C0000009  R0000013                      -43
    C0000009  R0000014                      -12
    C0000009  R0000015                       -8
    C0000009  R0000016                       -5
    C0000009  R0000017                      -44
    C0000009  R0000019                      -18
    C0000010  OBJROW                        -22
    C0000010  R0000000                      -10
    C0000010  R0000001                      -15
    C0000010  R0000002                       -2
    C0000010  R0000003                       -9
    C0000010  R0000004                      -43
    C0000010  R0000005                      -22
    C0000010  R0000006                      -42
    C0000010  R0000007                      -26
    C0000010  R0000008                      -12
    C0000010  R0000009                      -10
    C0000010  R0000010                      -19
    C0000010  R0000011                      -13
    C0000010  R0000014                      -35
    C0000010  R0000015                      -28
    C0000010  R0000016                       -6
    C0000010  R0000017                      -48
    C0000010  R0000019                      -44
    C0000011  OBJROW                         32
    C0000011  R0000000                       -5
    C0000011  R0000001                      -38
    C0000011  R0000003                      -28
    C0000011  R0000004                      -23
    C0000011  R0000006                      -42
    C0000011  R0000007                      -46
    C0000011  R0000008                      -25
    C0000011  R0000010                      -27
    C0000011  R0000011                      -38
    C0000011  R0000012                       -9
    C0000011  R0000013                      -16
    C0000011  R0000014                      -25
    C0000011  R0000015                      -48
    C0000011  R0000016                      -28
    C0000011  R0000017                      -22
    C0000011  R0000018                       -7
    C0000011  R0000019                      -36
    C0000012  OBJROW                         39
    C0000012  R0000000                      -44
    C0000012  R0000001                      -33
    C0000012  R0000002                       -8
    C0000012  R0000003                      -30
    C0000012  R0000004                      -15
    C0000012  R0000007                      -12
    C0000012  R0000009                      -36
    C0000012  R0000010                      -22
    C0000012  R0000011                      -13
    C0000012  R0000015                      -44
    C0000012  R0000016                      -23
    C0000012  R0000017                      -40
    C0000012  R0000019                      -10
    C0000013  OBJROW                         40
    C0000013  R0000003                      -49
    C0000013  R0000004                      -48
    C0000013  R0000007                      -30
    C0000013  R0000008                      -17
    C0000013  R0000011                      -21
    C0000013  R0000012                      -19
    C0000013  R0000016                      -50
    C0000013  R0000017                      -26
    C0000013  R0000018                       -8
    C0000013  R0000019                      -39
    C0000014  OBJROW                         34
    C0000014  R0000001                      -35
    C0000014  R0000002                       -4
    C0000014  R0000003                      -13
    C0000014  R0000004                      -23
    C0000014  R0000005                      -39
    C0000014  R0000006                      -10
    C0000014  R0000007                      -29
    C0000014  R0000008                      -49
    C0000014  R0000009                      -24
    C0000014  R0000010                      -35
    C0000014  R0000011                      -17
    C0000014  R0000012                       -1
    C0000014  R0000014                      -14
    C0000014  R0000016                      -30
    C0000014  R0000017                      -37
    C0000014  R0000019                      -42
    C0000015  OBJROW                         32
    C0000015  R0000002                       -7
    C0000015  R0000003                      -30
    C0000015  R0000004                      -37
    C0000015  R0000005                       -3
    C0000015  R0000006                      -30
    C0000015  R0000007                      -42
    C0000015  R0000008                      -34
    C0000015  R0000010                       -2
    C0000015  R0000011                       -3
    C0000015  R0000012                      -36
    C0000015  R0000013                       -1
    C0000015  R0000017                       -9
    C0000015  R0000018                      -35
    C0000016  OBJROW                         42
    C0000016  R0000000                      -19
    C0000016  R0000001                      -36
    C0000016  R0000003                      -33
    C0000016  R0000006                      -49
    C0000016  R0000007                       -5
    C0000016  R0000008                      -13
    C0000016  R0000009                       -3
    C0000016  R0000011                      -49
    C0000016  R0000013                      -27
    C0000016  R0000014                      -12
    C0000016  R0000016                      -12
    C0000016  R0000017                      -17
    C0000016  R0000018                      -25
    C0000017  OBJROW                        -34
    C0000017  R0000001                      -16
    C0000017  R0000002                      -12
    C0000017  R0000003                      -41
    C0000017  R0000004                      -25
    C0000017  R0000006                      -17
    C0000017  R0000007                       -6
    C0000017  R0000008                      -24
    C0000017  R0000009                      -43
    C0000017  R0000011                      -43
    C0000017  R0000012                      -34
    C0000017  R0000014                       -3
    C0000017  R0000016                      -23
    C0000017  R0000017                      -35
    C0000017  R0000019                       -6
    C0000018  OBJROW                         18
    C0000018  R0000002                      -45
    C0000018  R0000003                      -36
    C0000018  R0000004                      -34
    C0000018  R0000006                       -1
    C0000018  R0000007                      -42
    C0000018  R0000009                      -14
    C0000018  R0000011                      -46
    C0000018  R0000012                      -12
    C0000018  R0000013                      -28
    C0000018  R0000014                      -48
    C0000018  R0000016                      -18
    C0000018  R0000017                      -27
    C0000018  R0000019                      -24
    C0000019  OBJROW                        -21
    C0000019  R0000000                      -48
    C0000019  R0000001                      -50
    C0000019  R0000002                       -7
    C0000019  R0000003                      -28
    C0000019  R0000004                      -11
    C0000019  R0000006                      -27
    C0000019  R0000007                      -44
    C0000019  R0000008                      -46
    C0000019  R0000009                      -34
    C0000019  R0000010                      -29
    C0000019  R0000011                      -11
    C0000019  R0000012                      -50
    C0000019  R0000015                      -16
    C0000019  R0000019                      -35
    MARK0001  'MARKER'                 'INTEND'
RHS
    rhs       R0000000                     -243
    rhs       R0000001                     -480
    rhs       R0000002                     -599
    rhs       R0000003                     -668
    rhs       R0000004                     -575
    rhs       R0000005                     -426
    rhs       R0000006                     -655
    rhs       R0000007                     -704
    rhs       R0000008                     -774
    rhs       R0000009                     -537
    rhs       R0000010                     -275
    rhs       R0000011                     -765
    rhs       R0000012                     -314
    rhs       R0000013                     -234
    rhs       R0000014                     -188
    rhs       R0000015                     -343
    rhs       R0000016                     -503
    rhs       R0000017                     -654
    rhs       R0000018                     -320
    rhs       R0000019                     -534
BOUNDS
 UP bnd       C0000000                     1500
 UP bnd       C0000001                     1500
 UP bnd       C0000002                     1500
 UP bnd       C0000003                     1500
 UP bnd       C0000004                     1500
 UP bnd       C0000005                     1500
 UP bnd       C0000006                     1500
 UP bnd       C0000007                     1500
 UP bnd       C0000008                     1500
 UP bnd       C0000009                     1500
 UP bnd       C0000010                     1500
 UP bnd       C0000011                     1500
 UP bnd       C0000012                     1500
 UP bnd       C0000013                     1500
 UP bnd       C0000014                     1500
 UP bnd       C0000015                     1500
 UP bnd       C0000016                     1500
 UP bnd       C0000017                     1500
 UP bnd       C0000018                     1500
 UP bnd       C0000019                     1500
ENDATA
